p cnf 20 50
-7 14 -8 0
8 -13 -1 0
-7 -16 -12 0
18 15 11 0
6 11 -18 0
-16 3 1 0
-20 10 15 0
11 6 -17 0
8 -13 11 0
19 12 4 0
-1 -17 -2 0
15 17 10 0
-9 -8 13 0
-1 -17 20 0
-11 17 2 0
12 4 -19 0
9 -18 3 0
7 4 -14 0
-1 -4 8 0
19 -7 -3 0
2 -1 10 0
-10 17 -5 0
8 -20 -11 0
-11 17 12 0
14 1 12 0
-9 -2 -5 0
-3 -19 18 0
-12 -7 5 0
-7 -13 -4 0
-20 -18 -15 0
6 -8 -2 0
6 20 -4 0
17 -11 7 0
4 7 -3 0
-2 10 18 0
-1 -5 16 0
17 -6 -7 0
20 10 -5 0
-15 3 14 0
2 14 3 0
7 -1 13 0
-5 8 19 0
11 -15 4 0
-5 -3 -11 0
-8 4 3 0
18 5 -7 0
-15 14 13 0
-9 -19 -15 0
17 8 -20 0
12 -9 17 0